predicate alldifferentBut0Choco(array [int] of var int: x);
predicate value_precede_chain_intChoco(array [int] of int: c,array [int] of var int: x);
array [1..4] of int: X_INTRODUCED_29_ = [1,2,13,14];
array [1..4] of int: X_INTRODUCED_30_ = [3,4,5,6];
array [1..2] of int: X_INTRODUCED_31_ = [7,8];
array [1..3] of int: X_INTRODUCED_32_ = [9,10,11];
array [1..1] of int: X_INTRODUCED_33_ = [12];
array [1..29] of int: X_INTRODUCED_127_ = [1,-2562,-3078,-3078,-3078,-3078,-3478,-3478,-3478,-3478,-3478,-3478,-3731,-3731,-3731,-3731,-3731,-882,-882,-882,-882,-882,-882,-882,-882,-1596,-1596,-1596,-1596];
var {0,3,4,5,6}: X_INTRODUCED_0_;
var {0,3,4,5,6}: X_INTRODUCED_1_;
var {0,3,4,5,6}: X_INTRODUCED_2_;
var {0,1,2,3,4,5,6,7,8,9,10,11,13,14}: X_INTRODUCED_3_;
var {0,3,4,5,6,9,10,11}: X_INTRODUCED_4_;
var {0,3,4,5,6,9,10,11}: X_INTRODUCED_5_;
var {0,3,4,5,6,9,10,11}: X_INTRODUCED_6_;
var {0,3,4,5,6,9,10,11}: X_INTRODUCED_7_;
var {0,3,4,5,6,9,10,11}: X_INTRODUCED_8_;
var {0,3,4,5,6,9,10,11}: X_INTRODUCED_9_;
var {0,3,4,5,6,9,10,11}: X_INTRODUCED_10_;
var 0..14: X_INTRODUCED_11_;
var 0..14: X_INTRODUCED_12_;
var 0..14: X_INTRODUCED_13_;
var 0..14: X_INTRODUCED_14_;
var 0..14: X_INTRODUCED_15_;
var {0,1,2,3,4,5,6,9,10,11,13,14}: X_INTRODUCED_16_;
var {0,1,2,3,4,5,6,9,10,11,13,14}: X_INTRODUCED_17_;
var {0,1,2,3,4,5,6,9,10,11,13,14}: X_INTRODUCED_18_;
var {0,3,4,5,6}: X_INTRODUCED_19_;
var {0,1,2,3,4,5,6,7,8,9,10,11,13,14}: X_INTRODUCED_20_;
var {0,1,2,3,4,5,6,7,8,9,10,11,13,14}: X_INTRODUCED_21_;
var {0,1,2,3,4,5,6,7,8,9,10,11,13,14}: X_INTRODUCED_22_;
var {0,1,2,3,4,5,6,7,8,9,10,11,13,14}: X_INTRODUCED_23_;
var {0,1,2,3,4,5,6,7,8,9,10,11,13,14}: X_INTRODUCED_24_;
var {0,1,2,3,4,5,6,7,8,9,10,11,13,14}: X_INTRODUCED_25_;
var {0,3,4,5,6,9,10,11}: X_INTRODUCED_26_;
var {0,3,4,5,6,9,10,11}: X_INTRODUCED_27_;
var 0..67837: objective:: output_var:: is_defined_var;
var bool: X_INTRODUCED_34_ ::var_is_introduced :: is_defined_var;
var 0..1: X_INTRODUCED_35_ ::var_is_introduced :: is_defined_var;
var bool: X_INTRODUCED_38_ ::var_is_introduced :: is_defined_var;
var 0..1: X_INTRODUCED_39_ ::var_is_introduced :: is_defined_var;
var bool: X_INTRODUCED_42_ ::var_is_introduced :: is_defined_var;
var 0..1: X_INTRODUCED_43_ ::var_is_introduced :: is_defined_var;
var bool: X_INTRODUCED_45_ ::var_is_introduced :: is_defined_var;
var 0..1: X_INTRODUCED_46_ ::var_is_introduced :: is_defined_var;
var bool: X_INTRODUCED_48_ ::var_is_introduced :: is_defined_var;
var 0..1: X_INTRODUCED_49_ ::var_is_introduced :: is_defined_var;
var bool: X_INTRODUCED_51_ ::var_is_introduced :: is_defined_var;
var 0..1: X_INTRODUCED_52_ ::var_is_introduced :: is_defined_var;
var bool: X_INTRODUCED_55_ ::var_is_introduced :: is_defined_var;
var 0..1: X_INTRODUCED_56_ ::var_is_introduced :: is_defined_var;
var bool: X_INTRODUCED_58_ ::var_is_introduced :: is_defined_var;
var 0..1: X_INTRODUCED_59_ ::var_is_introduced :: is_defined_var;
var bool: X_INTRODUCED_61_ ::var_is_introduced :: is_defined_var;
var 0..1: X_INTRODUCED_62_ ::var_is_introduced :: is_defined_var;
var bool: X_INTRODUCED_64_ ::var_is_introduced :: is_defined_var;
var 0..1: X_INTRODUCED_65_ ::var_is_introduced :: is_defined_var;
var bool: X_INTRODUCED_67_ ::var_is_introduced :: is_defined_var;
var 0..1: X_INTRODUCED_68_ ::var_is_introduced :: is_defined_var;
var bool: X_INTRODUCED_70_ ::var_is_introduced :: is_defined_var;
var 0..1: X_INTRODUCED_71_ ::var_is_introduced :: is_defined_var;
var bool: X_INTRODUCED_74_ ::var_is_introduced :: is_defined_var;
var 0..1: X_INTRODUCED_75_ ::var_is_introduced :: is_defined_var;
var bool: X_INTRODUCED_77_ ::var_is_introduced :: is_defined_var;
var 0..1: X_INTRODUCED_78_ ::var_is_introduced :: is_defined_var;
var bool: X_INTRODUCED_80_ ::var_is_introduced :: is_defined_var;
var 0..1: X_INTRODUCED_81_ ::var_is_introduced :: is_defined_var;
var bool: X_INTRODUCED_83_ ::var_is_introduced :: is_defined_var;
var 0..1: X_INTRODUCED_84_ ::var_is_introduced :: is_defined_var;
var bool: X_INTRODUCED_86_ ::var_is_introduced :: is_defined_var;
var 0..1: X_INTRODUCED_87_ ::var_is_introduced :: is_defined_var;
var bool: X_INTRODUCED_90_ ::var_is_introduced :: is_defined_var;
var 0..1: X_INTRODUCED_91_ ::var_is_introduced :: is_defined_var;
var bool: X_INTRODUCED_93_ ::var_is_introduced :: is_defined_var;
var 0..1: X_INTRODUCED_94_ ::var_is_introduced :: is_defined_var;
var bool: X_INTRODUCED_96_ ::var_is_introduced :: is_defined_var;
var 0..1: X_INTRODUCED_97_ ::var_is_introduced :: is_defined_var;
var bool: X_INTRODUCED_99_ ::var_is_introduced :: is_defined_var;
var 0..1: X_INTRODUCED_100_ ::var_is_introduced :: is_defined_var;
var bool: X_INTRODUCED_102_ ::var_is_introduced :: is_defined_var;
var 0..1: X_INTRODUCED_103_ ::var_is_introduced :: is_defined_var;
var bool: X_INTRODUCED_105_ ::var_is_introduced :: is_defined_var;
var 0..1: X_INTRODUCED_106_ ::var_is_introduced :: is_defined_var;
var bool: X_INTRODUCED_108_ ::var_is_introduced :: is_defined_var;
var 0..1: X_INTRODUCED_109_ ::var_is_introduced :: is_defined_var;
var bool: X_INTRODUCED_111_ ::var_is_introduced :: is_defined_var;
var 0..1: X_INTRODUCED_112_ ::var_is_introduced :: is_defined_var;
var bool: X_INTRODUCED_115_ ::var_is_introduced :: is_defined_var;
var 0..1: X_INTRODUCED_116_ ::var_is_introduced :: is_defined_var;
var bool: X_INTRODUCED_118_ ::var_is_introduced :: is_defined_var;
var 0..1: X_INTRODUCED_119_ ::var_is_introduced :: is_defined_var;
var bool: X_INTRODUCED_121_ ::var_is_introduced :: is_defined_var;
var 0..1: X_INTRODUCED_122_ ::var_is_introduced :: is_defined_var;
var bool: X_INTRODUCED_128_ ::var_is_introduced :: is_defined_var;
var bool: X_INTRODUCED_129_ ::var_is_introduced :: is_defined_var;
var bool: X_INTRODUCED_130_ ::var_is_introduced :: is_defined_var;
var bool: X_INTRODUCED_131_ ::var_is_introduced :: is_defined_var;
var bool: X_INTRODUCED_132_ ::var_is_introduced :: is_defined_var;
var bool: X_INTRODUCED_133_ ::var_is_introduced :: is_defined_var;
var bool: X_INTRODUCED_134_ ::var_is_introduced :: is_defined_var;
var bool: X_INTRODUCED_135_ ::var_is_introduced :: is_defined_var;
var bool: X_INTRODUCED_136_ ::var_is_introduced :: is_defined_var;
var bool: X_INTRODUCED_137_ ::var_is_introduced :: is_defined_var;
var bool: X_INTRODUCED_138_ ::var_is_introduced :: is_defined_var;
var bool: X_INTRODUCED_139_ ::var_is_introduced :: is_defined_var;
var bool: X_INTRODUCED_140_ ::var_is_introduced :: is_defined_var;
var bool: X_INTRODUCED_141_ ::var_is_introduced :: is_defined_var;
var 0..1: X_INTRODUCED_143_ ::var_is_introduced :: is_defined_var;
var 0..1: X_INTRODUCED_144_ ::var_is_introduced :: is_defined_var;
var 0..1: X_INTRODUCED_145_ ::var_is_introduced :: is_defined_var;
var 0..1: X_INTRODUCED_146_ ::var_is_introduced :: is_defined_var;
var 0..1: X_INTRODUCED_147_ ::var_is_introduced :: is_defined_var;
var 0..1: X_INTRODUCED_148_ ::var_is_introduced :: is_defined_var;
var 0..1: X_INTRODUCED_149_ ::var_is_introduced :: is_defined_var;
var 0..1: X_INTRODUCED_150_ ::var_is_introduced :: is_defined_var;
var 0..1: X_INTRODUCED_151_ ::var_is_introduced :: is_defined_var;
var 0..1: X_INTRODUCED_152_ ::var_is_introduced :: is_defined_var;
var 0..1: X_INTRODUCED_153_ ::var_is_introduced :: is_defined_var;
var 0..1: X_INTRODUCED_154_ ::var_is_introduced :: is_defined_var;
var 0..1: X_INTRODUCED_155_ ::var_is_introduced :: is_defined_var;
var 0..1: X_INTRODUCED_156_ ::var_is_introduced :: is_defined_var;
array [1..28] of var int: assign:: output_array([1..28]) = [X_INTRODUCED_0_,X_INTRODUCED_1_,X_INTRODUCED_2_,X_INTRODUCED_3_,X_INTRODUCED_4_,X_INTRODUCED_5_,X_INTRODUCED_6_,X_INTRODUCED_7_,X_INTRODUCED_8_,X_INTRODUCED_9_,X_INTRODUCED_10_,X_INTRODUCED_11_,X_INTRODUCED_12_,X_INTRODUCED_13_,X_INTRODUCED_14_,X_INTRODUCED_15_,X_INTRODUCED_16_,X_INTRODUCED_17_,X_INTRODUCED_18_,X_INTRODUCED_19_,X_INTRODUCED_20_,X_INTRODUCED_21_,X_INTRODUCED_22_,X_INTRODUCED_23_,X_INTRODUCED_24_,X_INTRODUCED_25_,X_INTRODUCED_26_,X_INTRODUCED_27_];
array [1..29] of var int: X_INTRODUCED_126_ ::var_is_introduced  = [objective,X_INTRODUCED_35_,X_INTRODUCED_39_,X_INTRODUCED_43_,X_INTRODUCED_46_,X_INTRODUCED_49_,X_INTRODUCED_52_,X_INTRODUCED_56_,X_INTRODUCED_59_,X_INTRODUCED_62_,X_INTRODUCED_65_,X_INTRODUCED_68_,X_INTRODUCED_71_,X_INTRODUCED_75_,X_INTRODUCED_78_,X_INTRODUCED_81_,X_INTRODUCED_84_,X_INTRODUCED_87_,X_INTRODUCED_91_,X_INTRODUCED_94_,X_INTRODUCED_97_,X_INTRODUCED_100_,X_INTRODUCED_103_,X_INTRODUCED_106_,X_INTRODUCED_109_,X_INTRODUCED_112_,X_INTRODUCED_116_,X_INTRODUCED_119_,X_INTRODUCED_122_];
array [1..42] of var int: X_INTRODUCED_158_ ::var_is_introduced  = [X_INTRODUCED_143_,X_INTRODUCED_144_,X_INTRODUCED_145_,X_INTRODUCED_146_,X_INTRODUCED_147_,X_INTRODUCED_148_,X_INTRODUCED_149_,X_INTRODUCED_150_,X_INTRODUCED_151_,X_INTRODUCED_152_,X_INTRODUCED_153_,X_INTRODUCED_154_,X_INTRODUCED_155_,X_INTRODUCED_156_,X_INTRODUCED_0_,X_INTRODUCED_1_,X_INTRODUCED_2_,X_INTRODUCED_3_,X_INTRODUCED_4_,X_INTRODUCED_5_,X_INTRODUCED_6_,X_INTRODUCED_7_,X_INTRODUCED_8_,X_INTRODUCED_9_,X_INTRODUCED_10_,X_INTRODUCED_11_,X_INTRODUCED_12_,X_INTRODUCED_13_,X_INTRODUCED_14_,X_INTRODUCED_15_,X_INTRODUCED_16_,X_INTRODUCED_17_,X_INTRODUCED_18_,X_INTRODUCED_19_,X_INTRODUCED_20_,X_INTRODUCED_21_,X_INTRODUCED_22_,X_INTRODUCED_23_,X_INTRODUCED_24_,X_INTRODUCED_25_,X_INTRODUCED_26_,X_INTRODUCED_27_];
constraint alldifferentBut0Choco(assign):: bounds;
constraint value_precede_chain_intChoco(X_INTRODUCED_29_,assign);
constraint value_precede_chain_intChoco(X_INTRODUCED_30_,assign);
constraint value_precede_chain_intChoco(X_INTRODUCED_31_,assign);
constraint value_precede_chain_intChoco(X_INTRODUCED_32_,assign);
constraint value_precede_chain_intChoco(X_INTRODUCED_33_,assign);
constraint int_lin_eq(X_INTRODUCED_127_,X_INTRODUCED_126_,0):: defines_var(objective);
constraint int_le_reif(1,X_INTRODUCED_0_,X_INTRODUCED_34_):: defines_var(X_INTRODUCED_34_);
constraint bool2int(X_INTRODUCED_34_,X_INTRODUCED_35_):: defines_var(X_INTRODUCED_35_);
constraint int_le_reif(1,X_INTRODUCED_1_,X_INTRODUCED_38_):: defines_var(X_INTRODUCED_38_);
constraint bool2int(X_INTRODUCED_38_,X_INTRODUCED_39_):: defines_var(X_INTRODUCED_39_);
constraint int_le_reif(1,X_INTRODUCED_2_,X_INTRODUCED_42_):: defines_var(X_INTRODUCED_42_);
constraint bool2int(X_INTRODUCED_42_,X_INTRODUCED_43_):: defines_var(X_INTRODUCED_43_);
constraint int_le_reif(1,X_INTRODUCED_3_,X_INTRODUCED_45_):: defines_var(X_INTRODUCED_45_);
constraint bool2int(X_INTRODUCED_45_,X_INTRODUCED_46_):: defines_var(X_INTRODUCED_46_);
constraint int_le_reif(1,X_INTRODUCED_4_,X_INTRODUCED_48_):: defines_var(X_INTRODUCED_48_);
constraint bool2int(X_INTRODUCED_48_,X_INTRODUCED_49_):: defines_var(X_INTRODUCED_49_);
constraint int_le_reif(1,X_INTRODUCED_5_,X_INTRODUCED_51_):: defines_var(X_INTRODUCED_51_);
constraint bool2int(X_INTRODUCED_51_,X_INTRODUCED_52_):: defines_var(X_INTRODUCED_52_);
constraint int_le_reif(1,X_INTRODUCED_6_,X_INTRODUCED_55_):: defines_var(X_INTRODUCED_55_);
constraint bool2int(X_INTRODUCED_55_,X_INTRODUCED_56_):: defines_var(X_INTRODUCED_56_);
constraint int_le_reif(1,X_INTRODUCED_7_,X_INTRODUCED_58_):: defines_var(X_INTRODUCED_58_);
constraint bool2int(X_INTRODUCED_58_,X_INTRODUCED_59_):: defines_var(X_INTRODUCED_59_);
constraint int_le_reif(1,X_INTRODUCED_8_,X_INTRODUCED_61_):: defines_var(X_INTRODUCED_61_);
constraint bool2int(X_INTRODUCED_61_,X_INTRODUCED_62_):: defines_var(X_INTRODUCED_62_);
constraint int_le_reif(1,X_INTRODUCED_9_,X_INTRODUCED_64_):: defines_var(X_INTRODUCED_64_);
constraint bool2int(X_INTRODUCED_64_,X_INTRODUCED_65_):: defines_var(X_INTRODUCED_65_);
constraint int_le_reif(1,X_INTRODUCED_10_,X_INTRODUCED_67_):: defines_var(X_INTRODUCED_67_);
constraint bool2int(X_INTRODUCED_67_,X_INTRODUCED_68_):: defines_var(X_INTRODUCED_68_);
constraint int_le_reif(1,X_INTRODUCED_11_,X_INTRODUCED_70_):: defines_var(X_INTRODUCED_70_);
constraint bool2int(X_INTRODUCED_70_,X_INTRODUCED_71_):: defines_var(X_INTRODUCED_71_);
constraint int_le_reif(1,X_INTRODUCED_12_,X_INTRODUCED_74_):: defines_var(X_INTRODUCED_74_);
constraint bool2int(X_INTRODUCED_74_,X_INTRODUCED_75_):: defines_var(X_INTRODUCED_75_);
constraint int_le_reif(1,X_INTRODUCED_13_,X_INTRODUCED_77_):: defines_var(X_INTRODUCED_77_);
constraint bool2int(X_INTRODUCED_77_,X_INTRODUCED_78_):: defines_var(X_INTRODUCED_78_);
constraint int_le_reif(1,X_INTRODUCED_14_,X_INTRODUCED_80_):: defines_var(X_INTRODUCED_80_);
constraint bool2int(X_INTRODUCED_80_,X_INTRODUCED_81_):: defines_var(X_INTRODUCED_81_);
constraint int_le_reif(1,X_INTRODUCED_15_,X_INTRODUCED_83_):: defines_var(X_INTRODUCED_83_);
constraint bool2int(X_INTRODUCED_83_,X_INTRODUCED_84_):: defines_var(X_INTRODUCED_84_);
constraint int_le_reif(1,X_INTRODUCED_16_,X_INTRODUCED_86_):: defines_var(X_INTRODUCED_86_);
constraint bool2int(X_INTRODUCED_86_,X_INTRODUCED_87_):: defines_var(X_INTRODUCED_87_);
constraint int_le_reif(1,X_INTRODUCED_17_,X_INTRODUCED_90_):: defines_var(X_INTRODUCED_90_);
constraint bool2int(X_INTRODUCED_90_,X_INTRODUCED_91_):: defines_var(X_INTRODUCED_91_);
constraint int_le_reif(1,X_INTRODUCED_18_,X_INTRODUCED_93_):: defines_var(X_INTRODUCED_93_);
constraint bool2int(X_INTRODUCED_93_,X_INTRODUCED_94_):: defines_var(X_INTRODUCED_94_);
constraint int_le_reif(1,X_INTRODUCED_19_,X_INTRODUCED_96_):: defines_var(X_INTRODUCED_96_);
constraint bool2int(X_INTRODUCED_96_,X_INTRODUCED_97_):: defines_var(X_INTRODUCED_97_);
constraint int_le_reif(1,X_INTRODUCED_20_,X_INTRODUCED_99_):: defines_var(X_INTRODUCED_99_);
constraint bool2int(X_INTRODUCED_99_,X_INTRODUCED_100_):: defines_var(X_INTRODUCED_100_);
constraint int_le_reif(1,X_INTRODUCED_21_,X_INTRODUCED_102_):: defines_var(X_INTRODUCED_102_);
constraint bool2int(X_INTRODUCED_102_,X_INTRODUCED_103_):: defines_var(X_INTRODUCED_103_);
constraint int_le_reif(1,X_INTRODUCED_22_,X_INTRODUCED_105_):: defines_var(X_INTRODUCED_105_);
constraint bool2int(X_INTRODUCED_105_,X_INTRODUCED_106_):: defines_var(X_INTRODUCED_106_);
constraint int_le_reif(1,X_INTRODUCED_23_,X_INTRODUCED_108_):: defines_var(X_INTRODUCED_108_);
constraint bool2int(X_INTRODUCED_108_,X_INTRODUCED_109_):: defines_var(X_INTRODUCED_109_);
constraint int_le_reif(1,X_INTRODUCED_24_,X_INTRODUCED_111_):: defines_var(X_INTRODUCED_111_);
constraint bool2int(X_INTRODUCED_111_,X_INTRODUCED_112_):: defines_var(X_INTRODUCED_112_);
constraint int_le_reif(1,X_INTRODUCED_25_,X_INTRODUCED_115_):: defines_var(X_INTRODUCED_115_);
constraint bool2int(X_INTRODUCED_115_,X_INTRODUCED_116_):: defines_var(X_INTRODUCED_116_);
constraint int_le_reif(1,X_INTRODUCED_26_,X_INTRODUCED_118_):: defines_var(X_INTRODUCED_118_);
constraint bool2int(X_INTRODUCED_118_,X_INTRODUCED_119_):: defines_var(X_INTRODUCED_119_);
constraint int_le_reif(1,X_INTRODUCED_27_,X_INTRODUCED_121_):: defines_var(X_INTRODUCED_121_);
constraint bool2int(X_INTRODUCED_121_,X_INTRODUCED_122_):: defines_var(X_INTRODUCED_122_);
constraint int_le_reif(X_INTRODUCED_11_,0,X_INTRODUCED_128_):: defines_var(X_INTRODUCED_128_);
constraint int_le_reif(X_INTRODUCED_12_,0,X_INTRODUCED_129_):: defines_var(X_INTRODUCED_129_);
constraint int_le_reif(X_INTRODUCED_13_,0,X_INTRODUCED_130_):: defines_var(X_INTRODUCED_130_);
constraint int_le_reif(X_INTRODUCED_1_,0,X_INTRODUCED_131_):: defines_var(X_INTRODUCED_131_);
constraint int_le_reif(X_INTRODUCED_2_,0,X_INTRODUCED_132_):: defines_var(X_INTRODUCED_132_);
constraint int_le_reif(X_INTRODUCED_3_,0,X_INTRODUCED_133_):: defines_var(X_INTRODUCED_133_);
constraint int_le_reif(X_INTRODUCED_4_,0,X_INTRODUCED_134_):: defines_var(X_INTRODUCED_134_);
constraint int_le_reif(X_INTRODUCED_0_,0,X_INTRODUCED_135_):: defines_var(X_INTRODUCED_135_);
constraint int_le_reif(X_INTRODUCED_5_,0,X_INTRODUCED_136_):: defines_var(X_INTRODUCED_136_);
constraint int_le_reif(X_INTRODUCED_6_,0,X_INTRODUCED_137_):: defines_var(X_INTRODUCED_137_);
constraint int_le_reif(X_INTRODUCED_7_,0,X_INTRODUCED_138_):: defines_var(X_INTRODUCED_138_);
constraint int_le_reif(X_INTRODUCED_8_,0,X_INTRODUCED_139_):: defines_var(X_INTRODUCED_139_);
constraint int_le_reif(X_INTRODUCED_9_,0,X_INTRODUCED_140_):: defines_var(X_INTRODUCED_140_);
constraint int_le_reif(X_INTRODUCED_10_,0,X_INTRODUCED_141_):: defines_var(X_INTRODUCED_141_);
constraint bool2int(X_INTRODUCED_128_,X_INTRODUCED_143_):: defines_var(X_INTRODUCED_143_);
constraint bool2int(X_INTRODUCED_129_,X_INTRODUCED_144_):: defines_var(X_INTRODUCED_144_);
constraint bool2int(X_INTRODUCED_130_,X_INTRODUCED_145_):: defines_var(X_INTRODUCED_145_);
constraint bool2int(X_INTRODUCED_131_,X_INTRODUCED_146_):: defines_var(X_INTRODUCED_146_);
constraint bool2int(X_INTRODUCED_132_,X_INTRODUCED_147_):: defines_var(X_INTRODUCED_147_);
constraint bool2int(X_INTRODUCED_133_,X_INTRODUCED_148_):: defines_var(X_INTRODUCED_148_);
constraint bool2int(X_INTRODUCED_134_,X_INTRODUCED_149_):: defines_var(X_INTRODUCED_149_);
constraint bool2int(X_INTRODUCED_135_,X_INTRODUCED_150_):: defines_var(X_INTRODUCED_150_);
constraint bool2int(X_INTRODUCED_136_,X_INTRODUCED_151_):: defines_var(X_INTRODUCED_151_);
constraint bool2int(X_INTRODUCED_137_,X_INTRODUCED_152_):: defines_var(X_INTRODUCED_152_);
constraint bool2int(X_INTRODUCED_138_,X_INTRODUCED_153_):: defines_var(X_INTRODUCED_153_);
constraint bool2int(X_INTRODUCED_139_,X_INTRODUCED_154_):: defines_var(X_INTRODUCED_154_);
constraint bool2int(X_INTRODUCED_140_,X_INTRODUCED_155_):: defines_var(X_INTRODUCED_155_);
constraint bool2int(X_INTRODUCED_141_,X_INTRODUCED_156_):: defines_var(X_INTRODUCED_156_);
solve :: int_search(X_INTRODUCED_158_,input_order,indomain_min,complete) maximize objective;
